
Gurobi 9.5.2 (win64) logging started Wed Jan 10 17:37:55 2024

Set parameter LogFile to value "./ccga_results/2024-01-10 17-37-43-091/MSP_TimeStampConvert_gurobi_log.txt"
Set parameter TimeLimit to value 7195

Gurobi 9.5.2 (win64) logging started Wed Jan 10 17:37:58 2024

Set parameter LogFile to value "./ccga_results/2024-01-10 17-37-43-091/MSP_TimeStampConvert_gurobi_log.txt"
Set parameter TimeLimit to value 7195
Gurobi Optimizer version 9.5.2 build v9.5.2rc0 (win64)
Thread count: 10 physical cores, 20 logical processors, using up to 20 threads
Optimize a model with 100 rows, 77 columns and 242 nonzeros
Model fingerprint: 0x4e3c23ab
Variable types: 5 continuous, 72 integer (72 binary)
Coefficient statistics:
  Matrix range     [1e+00, 1e+00]
  Objective range  [1e+00, 1e+00]
  Bounds range     [1e+03, 1e+03]
  RHS range        [1e+00, 1e+00]
Found heuristic solution: objective 4000.0000000

Explored 0 nodes (0 simplex iterations) in 0.00 seconds (0.00 work units)
Thread count was 1 (of 20 available processors)

Solution count 1: 4000 

Optimal solution found (tolerance 1.00e-02)
Best objective 4.000000000000e+03, best bound 4.000000000000e+03, gap 0.0000%

User-callback calls 21, time in user-callback 0.00 sec
Set parameter TimeLimit to value 7189
Gurobi Optimizer version 9.5.2 build v9.5.2rc0 (win64)
Thread count: 10 physical cores, 20 logical processors, using up to 20 threads
Optimize a model with 361 rows, 161 columns and 1057 nonzeros
Model fingerprint: 0xe9f68d32
Variable types: 81 continuous, 80 integer (80 binary)
Coefficient statistics:
  Matrix range     [9e-01, 8e+02]
  Objective range  [1e+00, 1e+00]
  Bounds range     [1e+03, 1e+03]
  RHS range        [1e+00, 1e+08]

MIP start from previous solve did not produce a new incumbent solution

Presolve removed 197 rows and 79 columns
Presolve time: 0.00s
Presolved: 164 rows, 82 columns, 515 nonzeros
Variable types: 64 continuous, 18 integer (18 binary)
Found heuristic solution: objective 1395.0000000

Root relaxation: objective 2.250000e+03, 49 iterations, 0.00 seconds (0.00 work units)

    Nodes    |    Current Node    |     Objective Bounds      |     Work
 Expl Unexpl |  Obj  Depth IntInf | Incumbent    BestBd   Gap | It/Node Time

     0     0 2250.00000    0    1 1395.00000 2250.00000  61.3%     -    0s
H    0     0                    2250.0000000 2250.00000  0.00%     -    0s
     0     0 2250.00000    0    1 2250.00000 2250.00000  0.00%     -    0s

Explored 1 nodes (49 simplex iterations) in 0.01 seconds (0.00 work units)
Thread count was 20 (of 20 available processors)

Solution count 2: 2250 1395 

Optimal solution found (tolerance 1.00e-02)
Best objective 2.250000000000e+03, best bound 2.250000000000e+03, gap 0.0000%

User-callback calls 650, time in user-callback 0.00 sec
Set parameter TimeLimit to value 7188
Gurobi Optimizer version 9.5.2 build v9.5.2rc0 (win64)
Thread count: 10 physical cores, 20 logical processors, using up to 20 threads
Optimize a model with 622 rows, 245 columns and 1872 nonzeros
Model fingerprint: 0x5d06d0d1
Variable types: 157 continuous, 88 integer (88 binary)
Coefficient statistics:
  Matrix range     [9e-01, 8e+02]
  Objective range  [1e+00, 1e+00]
  Bounds range     [1e+03, 1e+03]
  RHS range        [1e+00, 1e+08]

MIP start from previous solve did not produce a new incumbent solution

Presolve removed 420 rows and 143 columns
Presolve time: 0.00s
Presolved: 202 rows, 102 columns, 609 nonzeros
Variable types: 90 continuous, 12 integer (12 binary)
Found heuristic solution: objective 670.0000000
Found heuristic solution: objective 685.0000000

Root relaxation: objective 1.300000e+03, 89 iterations, 0.00 seconds (0.00 work units)

    Nodes    |    Current Node    |     Objective Bounds      |     Work
 Expl Unexpl |  Obj  Depth IntInf | Incumbent    BestBd   Gap | It/Node Time

     0     0 1300.00000    0    1  685.00000 1300.00000  89.8%     -    0s
H    0     0                    1300.0000000 1300.00000  0.00%     -    0s
     0     0 1300.00000    0    1 1300.00000 1300.00000  0.00%     -    0s

Explored 1 nodes (89 simplex iterations) in 0.01 seconds (0.01 work units)
Thread count was 20 (of 20 available processors)

Solution count 3: 1300 685 670 

Optimal solution found (tolerance 1.00e-02)
Best objective 1.300000000000e+03, best bound 1.300000000000e+03, gap 0.0000%

User-callback calls 792, time in user-callback 0.00 sec
Set parameter TimeLimit to value 7187
Gurobi Optimizer version 9.5.2 build v9.5.2rc0 (win64)
Thread count: 10 physical cores, 20 logical processors, using up to 20 threads
Optimize a model with 883 rows, 329 columns and 2687 nonzeros
Model fingerprint: 0x416967b7
Variable types: 233 continuous, 96 integer (96 binary)
Coefficient statistics:
  Matrix range     [9e-01, 8e+02]
  Objective range  [1e+00, 1e+00]
  Bounds range     [1e+03, 1e+03]
  RHS range        [1e+00, 1e+08]

MIP start from previous solve did not produce a new incumbent solution

Presolve removed 581 rows and 173 columns
Presolve time: 0.00s
Presolved: 302 rows, 156 columns, 918 nonzeros
Variable types: 148 continuous, 8 integer (8 binary)
Found heuristic solution: objective 170.0000000

Root relaxation: objective 4.700000e+02, 200 iterations, 0.00 seconds (0.00 work units)

    Nodes    |    Current Node    |     Objective Bounds      |     Work
 Expl Unexpl |  Obj  Depth IntInf | Incumbent    BestBd   Gap | It/Node Time

*    0     0               0     470.0000000  470.00000  0.00%     -    0s

Explored 1 nodes (200 simplex iterations) in 0.01 seconds (0.01 work units)
Thread count was 20 (of 20 available processors)

Solution count 2: 470 170 

Optimal solution found (tolerance 1.00e-02)
Best objective 4.700000000000e+02, best bound 4.700000000000e+02, gap 0.0000%

User-callback calls 755, time in user-callback 0.00 sec
